33D32945 STP File, STP Format Version 1.0

SECTION Comments
Name "Grid10x10x10"
Problem "Euclidean Steiner Tree Problem"
Remark "Generated with STPGenerator"
END

SECTION Graph
Nodes 1000
END

SECTION Coordinates
DDD 0.0 0.0 0.0
DDD 1.0 0.0 0.0
DDD 2.0 0.0 0.0
DDD 3.0 0.0 0.0
DDD 4.0 0.0 0.0
DDD 5.0 0.0 0.0
DDD 6.0 0.0 0.0
DDD 7.0 0.0 0.0
DDD 8.0 0.0 0.0
DDD 9.0 0.0 0.0
DDD 0.0 1.0 0.0
DDD 1.0 1.0 0.0
DDD 2.0 1.0 0.0
DDD 3.0 1.0 0.0
DDD 4.0 1.0 0.0
DDD 5.0 1.0 0.0
DDD 6.0 1.0 0.0
DDD 7.0 1.0 0.0
DDD 8.0 1.0 0.0
DDD 9.0 1.0 0.0
DDD 0.0 2.0 0.0
DDD 1.0 2.0 0.0
DDD 2.0 2.0 0.0
DDD 3.0 2.0 0.0
DDD 4.0 2.0 0.0
DDD 5.0 2.0 0.0
DDD 6.0 2.0 0.0
DDD 7.0 2.0 0.0
DDD 8.0 2.0 0.0
DDD 9.0 2.0 0.0
DDD 0.0 3.0 0.0
DDD 1.0 3.0 0.0
DDD 2.0 3.0 0.0
DDD 3.0 3.0 0.0
DDD 4.0 3.0 0.0
DDD 5.0 3.0 0.0
DDD 6.0 3.0 0.0
DDD 7.0 3.0 0.0
DDD 8.0 3.0 0.0
DDD 9.0 3.0 0.0
DDD 0.0 4.0 0.0
DDD 1.0 4.0 0.0
DDD 2.0 4.0 0.0
DDD 3.0 4.0 0.0
DDD 4.0 4.0 0.0
DDD 5.0 4.0 0.0
DDD 6.0 4.0 0.0
DDD 7.0 4.0 0.0
DDD 8.0 4.0 0.0
DDD 9.0 4.0 0.0
DDD 0.0 5.0 0.0
DDD 1.0 5.0 0.0
DDD 2.0 5.0 0.0
DDD 3.0 5.0 0.0
DDD 4.0 5.0 0.0
DDD 5.0 5.0 0.0
DDD 6.0 5.0 0.0
DDD 7.0 5.0 0.0
DDD 8.0 5.0 0.0
DDD 9.0 5.0 0.0
DDD 0.0 6.0 0.0
DDD 1.0 6.0 0.0
DDD 2.0 6.0 0.0
DDD 3.0 6.0 0.0
DDD 4.0 6.0 0.0
DDD 5.0 6.0 0.0
DDD 6.0 6.0 0.0
DDD 7.0 6.0 0.0
DDD 8.0 6.0 0.0
DDD 9.0 6.0 0.0
DDD 0.0 7.0 0.0
DDD 1.0 7.0 0.0
DDD 2.0 7.0 0.0
DDD 3.0 7.0 0.0
DDD 4.0 7.0 0.0
DDD 5.0 7.0 0.0
DDD 6.0 7.0 0.0
DDD 7.0 7.0 0.0
DDD 8.0 7.0 0.0
DDD 9.0 7.0 0.0
DDD 0.0 8.0 0.0
DDD 1.0 8.0 0.0
DDD 2.0 8.0 0.0
DDD 3.0 8.0 0.0
DDD 4.0 8.0 0.0
DDD 5.0 8.0 0.0
DDD 6.0 8.0 0.0
DDD 7.0 8.0 0.0
DDD 8.0 8.0 0.0
DDD 9.0 8.0 0.0
DDD 0.0 9.0 0.0
DDD 1.0 9.0 0.0
DDD 2.0 9.0 0.0
DDD 3.0 9.0 0.0
DDD 4.0 9.0 0.0
DDD 5.0 9.0 0.0
DDD 6.0 9.0 0.0
DDD 7.0 9.0 0.0
DDD 8.0 9.0 0.0
DDD 9.0 9.0 0.0
DDD 0.0 0.0 1.0
DDD 1.0 0.0 1.0
DDD 2.0 0.0 1.0
DDD 3.0 0.0 1.0
DDD 4.0 0.0 1.0
DDD 5.0 0.0 1.0
DDD 6.0 0.0 1.0
DDD 7.0 0.0 1.0
DDD 8.0 0.0 1.0
DDD 9.0 0.0 1.0
DDD 0.0 1.0 1.0
DDD 1.0 1.0 1.0
DDD 2.0 1.0 1.0
DDD 3.0 1.0 1.0
DDD 4.0 1.0 1.0
DDD 5.0 1.0 1.0
DDD 6.0 1.0 1.0
DDD 7.0 1.0 1.0
DDD 8.0 1.0 1.0
DDD 9.0 1.0 1.0
DDD 0.0 2.0 1.0
DDD 1.0 2.0 1.0
DDD 2.0 2.0 1.0
DDD 3.0 2.0 1.0
DDD 4.0 2.0 1.0
DDD 5.0 2.0 1.0
DDD 6.0 2.0 1.0
DDD 7.0 2.0 1.0
DDD 8.0 2.0 1.0
DDD 9.0 2.0 1.0
DDD 0.0 3.0 1.0
DDD 1.0 3.0 1.0
DDD 2.0 3.0 1.0
DDD 3.0 3.0 1.0
DDD 4.0 3.0 1.0
DDD 5.0 3.0 1.0
DDD 6.0 3.0 1.0
DDD 7.0 3.0 1.0
DDD 8.0 3.0 1.0
DDD 9.0 3.0 1.0
DDD 0.0 4.0 1.0
DDD 1.0 4.0 1.0
DDD 2.0 4.0 1.0
DDD 3.0 4.0 1.0
DDD 4.0 4.0 1.0
DDD 5.0 4.0 1.0
DDD 6.0 4.0 1.0
DDD 7.0 4.0 1.0
DDD 8.0 4.0 1.0
DDD 9.0 4.0 1.0
DDD 0.0 5.0 1.0
DDD 1.0 5.0 1.0
DDD 2.0 5.0 1.0
DDD 3.0 5.0 1.0
DDD 4.0 5.0 1.0
DDD 5.0 5.0 1.0
DDD 6.0 5.0 1.0
DDD 7.0 5.0 1.0
DDD 8.0 5.0 1.0
DDD 9.0 5.0 1.0
DDD 0.0 6.0 1.0
DDD 1.0 6.0 1.0
DDD 2.0 6.0 1.0
DDD 3.0 6.0 1.0
DDD 4.0 6.0 1.0
DDD 5.0 6.0 1.0
DDD 6.0 6.0 1.0
DDD 7.0 6.0 1.0
DDD 8.0 6.0 1.0
DDD 9.0 6.0 1.0
DDD 0.0 7.0 1.0
DDD 1.0 7.0 1.0
DDD 2.0 7.0 1.0
DDD 3.0 7.0 1.0
DDD 4.0 7.0 1.0
DDD 5.0 7.0 1.0
DDD 6.0 7.0 1.0
DDD 7.0 7.0 1.0
DDD 8.0 7.0 1.0
DDD 9.0 7.0 1.0
DDD 0.0 8.0 1.0
DDD 1.0 8.0 1.0
DDD 2.0 8.0 1.0
DDD 3.0 8.0 1.0
DDD 4.0 8.0 1.0
DDD 5.0 8.0 1.0
DDD 6.0 8.0 1.0
DDD 7.0 8.0 1.0
DDD 8.0 8.0 1.0
DDD 9.0 8.0 1.0
DDD 0.0 9.0 1.0
DDD 1.0 9.0 1.0
DDD 2.0 9.0 1.0
DDD 3.0 9.0 1.0
DDD 4.0 9.0 1.0
DDD 5.0 9.0 1.0
DDD 6.0 9.0 1.0
DDD 7.0 9.0 1.0
DDD 8.0 9.0 1.0
DDD 9.0 9.0 1.0
DDD 0.0 0.0 2.0
DDD 1.0 0.0 2.0
DDD 2.0 0.0 2.0
DDD 3.0 0.0 2.0
DDD 4.0 0.0 2.0
DDD 5.0 0.0 2.0
DDD 6.0 0.0 2.0
DDD 7.0 0.0 2.0
DDD 8.0 0.0 2.0
DDD 9.0 0.0 2.0
DDD 0.0 1.0 2.0
DDD 1.0 1.0 2.0
DDD 2.0 1.0 2.0
DDD 3.0 1.0 2.0
DDD 4.0 1.0 2.0
DDD 5.0 1.0 2.0
DDD 6.0 1.0 2.0
DDD 7.0 1.0 2.0
DDD 8.0 1.0 2.0
DDD 9.0 1.0 2.0
DDD 0.0 2.0 2.0
DDD 1.0 2.0 2.0
DDD 2.0 2.0 2.0
DDD 3.0 2.0 2.0
DDD 4.0 2.0 2.0
DDD 5.0 2.0 2.0
DDD 6.0 2.0 2.0
DDD 7.0 2.0 2.0
DDD 8.0 2.0 2.0
DDD 9.0 2.0 2.0
DDD 0.0 3.0 2.0
DDD 1.0 3.0 2.0
DDD 2.0 3.0 2.0
DDD 3.0 3.0 2.0
DDD 4.0 3.0 2.0
DDD 5.0 3.0 2.0
DDD 6.0 3.0 2.0
DDD 7.0 3.0 2.0
DDD 8.0 3.0 2.0
DDD 9.0 3.0 2.0
DDD 0.0 4.0 2.0
DDD 1.0 4.0 2.0
DDD 2.0 4.0 2.0
DDD 3.0 4.0 2.0
DDD 4.0 4.0 2.0
DDD 5.0 4.0 2.0
DDD 6.0 4.0 2.0
DDD 7.0 4.0 2.0
DDD 8.0 4.0 2.0
DDD 9.0 4.0 2.0
DDD 0.0 5.0 2.0
DDD 1.0 5.0 2.0
DDD 2.0 5.0 2.0
DDD 3.0 5.0 2.0
DDD 4.0 5.0 2.0
DDD 5.0 5.0 2.0
DDD 6.0 5.0 2.0
DDD 7.0 5.0 2.0
DDD 8.0 5.0 2.0
DDD 9.0 5.0 2.0
DDD 0.0 6.0 2.0
DDD 1.0 6.0 2.0
DDD 2.0 6.0 2.0
DDD 3.0 6.0 2.0
DDD 4.0 6.0 2.0
DDD 5.0 6.0 2.0
DDD 6.0 6.0 2.0
DDD 7.0 6.0 2.0
DDD 8.0 6.0 2.0
DDD 9.0 6.0 2.0
DDD 0.0 7.0 2.0
DDD 1.0 7.0 2.0
DDD 2.0 7.0 2.0
DDD 3.0 7.0 2.0
DDD 4.0 7.0 2.0
DDD 5.0 7.0 2.0
DDD 6.0 7.0 2.0
DDD 7.0 7.0 2.0
DDD 8.0 7.0 2.0
DDD 9.0 7.0 2.0
DDD 0.0 8.0 2.0
DDD 1.0 8.0 2.0
DDD 2.0 8.0 2.0
DDD 3.0 8.0 2.0
DDD 4.0 8.0 2.0
DDD 5.0 8.0 2.0
DDD 6.0 8.0 2.0
DDD 7.0 8.0 2.0
DDD 8.0 8.0 2.0
DDD 9.0 8.0 2.0
DDD 0.0 9.0 2.0
DDD 1.0 9.0 2.0
DDD 2.0 9.0 2.0
DDD 3.0 9.0 2.0
DDD 4.0 9.0 2.0
DDD 5.0 9.0 2.0
DDD 6.0 9.0 2.0
DDD 7.0 9.0 2.0
DDD 8.0 9.0 2.0
DDD 9.0 9.0 2.0
DDD 0.0 0.0 3.0
DDD 1.0 0.0 3.0
DDD 2.0 0.0 3.0
DDD 3.0 0.0 3.0
DDD 4.0 0.0 3.0
DDD 5.0 0.0 3.0
DDD 6.0 0.0 3.0
DDD 7.0 0.0 3.0
DDD 8.0 0.0 3.0
DDD 9.0 0.0 3.0
DDD 0.0 1.0 3.0
DDD 1.0 1.0 3.0
DDD 2.0 1.0 3.0
DDD 3.0 1.0 3.0
DDD 4.0 1.0 3.0
DDD 5.0 1.0 3.0
DDD 6.0 1.0 3.0
DDD 7.0 1.0 3.0
DDD 8.0 1.0 3.0
DDD 9.0 1.0 3.0
DDD 0.0 2.0 3.0
DDD 1.0 2.0 3.0
DDD 2.0 2.0 3.0
DDD 3.0 2.0 3.0
DDD 4.0 2.0 3.0
DDD 5.0 2.0 3.0
DDD 6.0 2.0 3.0
DDD 7.0 2.0 3.0
DDD 8.0 2.0 3.0
DDD 9.0 2.0 3.0
DDD 0.0 3.0 3.0
DDD 1.0 3.0 3.0
DDD 2.0 3.0 3.0
DDD 3.0 3.0 3.0
DDD 4.0 3.0 3.0
DDD 5.0 3.0 3.0
DDD 6.0 3.0 3.0
DDD 7.0 3.0 3.0
DDD 8.0 3.0 3.0
DDD 9.0 3.0 3.0
DDD 0.0 4.0 3.0
DDD 1.0 4.0 3.0
DDD 2.0 4.0 3.0
DDD 3.0 4.0 3.0
DDD 4.0 4.0 3.0
DDD 5.0 4.0 3.0
DDD 6.0 4.0 3.0
DDD 7.0 4.0 3.0
DDD 8.0 4.0 3.0
DDD 9.0 4.0 3.0
DDD 0.0 5.0 3.0
DDD 1.0 5.0 3.0
DDD 2.0 5.0 3.0
DDD 3.0 5.0 3.0
DDD 4.0 5.0 3.0
DDD 5.0 5.0 3.0
DDD 6.0 5.0 3.0
DDD 7.0 5.0 3.0
DDD 8.0 5.0 3.0
DDD 9.0 5.0 3.0
DDD 0.0 6.0 3.0
DDD 1.0 6.0 3.0
DDD 2.0 6.0 3.0
DDD 3.0 6.0 3.0
DDD 4.0 6.0 3.0
DDD 5.0 6.0 3.0
DDD 6.0 6.0 3.0
DDD 7.0 6.0 3.0
DDD 8.0 6.0 3.0
DDD 9.0 6.0 3.0
DDD 0.0 7.0 3.0
DDD 1.0 7.0 3.0
DDD 2.0 7.0 3.0
DDD 3.0 7.0 3.0
DDD 4.0 7.0 3.0
DDD 5.0 7.0 3.0
DDD 6.0 7.0 3.0
DDD 7.0 7.0 3.0
DDD 8.0 7.0 3.0
DDD 9.0 7.0 3.0
DDD 0.0 8.0 3.0
DDD 1.0 8.0 3.0
DDD 2.0 8.0 3.0
DDD 3.0 8.0 3.0
DDD 4.0 8.0 3.0
DDD 5.0 8.0 3.0
DDD 6.0 8.0 3.0
DDD 7.0 8.0 3.0
DDD 8.0 8.0 3.0
DDD 9.0 8.0 3.0
DDD 0.0 9.0 3.0
DDD 1.0 9.0 3.0
DDD 2.0 9.0 3.0
DDD 3.0 9.0 3.0
DDD 4.0 9.0 3.0
DDD 5.0 9.0 3.0
DDD 6.0 9.0 3.0
DDD 7.0 9.0 3.0
DDD 8.0 9.0 3.0
DDD 9.0 9.0 3.0
DDD 0.0 0.0 4.0
DDD 1.0 0.0 4.0
DDD 2.0 0.0 4.0
DDD 3.0 0.0 4.0
DDD 4.0 0.0 4.0
DDD 5.0 0.0 4.0
DDD 6.0 0.0 4.0
DDD 7.0 0.0 4.0
DDD 8.0 0.0 4.0
DDD 9.0 0.0 4.0
DDD 0.0 1.0 4.0
DDD 1.0 1.0 4.0
DDD 2.0 1.0 4.0
DDD 3.0 1.0 4.0
DDD 4.0 1.0 4.0
DDD 5.0 1.0 4.0
DDD 6.0 1.0 4.0
DDD 7.0 1.0 4.0
DDD 8.0 1.0 4.0
DDD 9.0 1.0 4.0
DDD 0.0 2.0 4.0
DDD 1.0 2.0 4.0
DDD 2.0 2.0 4.0
DDD 3.0 2.0 4.0
DDD 4.0 2.0 4.0
DDD 5.0 2.0 4.0
DDD 6.0 2.0 4.0
DDD 7.0 2.0 4.0
DDD 8.0 2.0 4.0
DDD 9.0 2.0 4.0
DDD 0.0 3.0 4.0
DDD 1.0 3.0 4.0
DDD 2.0 3.0 4.0
DDD 3.0 3.0 4.0
DDD 4.0 3.0 4.0
DDD 5.0 3.0 4.0
DDD 6.0 3.0 4.0
DDD 7.0 3.0 4.0
DDD 8.0 3.0 4.0
DDD 9.0 3.0 4.0
DDD 0.0 4.0 4.0
DDD 1.0 4.0 4.0
DDD 2.0 4.0 4.0
DDD 3.0 4.0 4.0
DDD 4.0 4.0 4.0
DDD 5.0 4.0 4.0
DDD 6.0 4.0 4.0
DDD 7.0 4.0 4.0
DDD 8.0 4.0 4.0
DDD 9.0 4.0 4.0
DDD 0.0 5.0 4.0
DDD 1.0 5.0 4.0
DDD 2.0 5.0 4.0
DDD 3.0 5.0 4.0
DDD 4.0 5.0 4.0
DDD 5.0 5.0 4.0
DDD 6.0 5.0 4.0
DDD 7.0 5.0 4.0
DDD 8.0 5.0 4.0
DDD 9.0 5.0 4.0
DDD 0.0 6.0 4.0
DDD 1.0 6.0 4.0
DDD 2.0 6.0 4.0
DDD 3.0 6.0 4.0
DDD 4.0 6.0 4.0
DDD 5.0 6.0 4.0
DDD 6.0 6.0 4.0
DDD 7.0 6.0 4.0
DDD 8.0 6.0 4.0
DDD 9.0 6.0 4.0
DDD 0.0 7.0 4.0
DDD 1.0 7.0 4.0
DDD 2.0 7.0 4.0
DDD 3.0 7.0 4.0
DDD 4.0 7.0 4.0
DDD 5.0 7.0 4.0
DDD 6.0 7.0 4.0
DDD 7.0 7.0 4.0
DDD 8.0 7.0 4.0
DDD 9.0 7.0 4.0
DDD 0.0 8.0 4.0
DDD 1.0 8.0 4.0
DDD 2.0 8.0 4.0
DDD 3.0 8.0 4.0
DDD 4.0 8.0 4.0
DDD 5.0 8.0 4.0
DDD 6.0 8.0 4.0
DDD 7.0 8.0 4.0
DDD 8.0 8.0 4.0
DDD 9.0 8.0 4.0
DDD 0.0 9.0 4.0
DDD 1.0 9.0 4.0
DDD 2.0 9.0 4.0
DDD 3.0 9.0 4.0
DDD 4.0 9.0 4.0
DDD 5.0 9.0 4.0
DDD 6.0 9.0 4.0
DDD 7.0 9.0 4.0
DDD 8.0 9.0 4.0
DDD 9.0 9.0 4.0
DDD 0.0 0.0 5.0
DDD 1.0 0.0 5.0
DDD 2.0 0.0 5.0
DDD 3.0 0.0 5.0
DDD 4.0 0.0 5.0
DDD 5.0 0.0 5.0
DDD 6.0 0.0 5.0
DDD 7.0 0.0 5.0
DDD 8.0 0.0 5.0
DDD 9.0 0.0 5.0
DDD 0.0 1.0 5.0
DDD 1.0 1.0 5.0
DDD 2.0 1.0 5.0
DDD 3.0 1.0 5.0
DDD 4.0 1.0 5.0
DDD 5.0 1.0 5.0
DDD 6.0 1.0 5.0
DDD 7.0 1.0 5.0
DDD 8.0 1.0 5.0
DDD 9.0 1.0 5.0
DDD 0.0 2.0 5.0
DDD 1.0 2.0 5.0
DDD 2.0 2.0 5.0
DDD 3.0 2.0 5.0
DDD 4.0 2.0 5.0
DDD 5.0 2.0 5.0
DDD 6.0 2.0 5.0
DDD 7.0 2.0 5.0
DDD 8.0 2.0 5.0
DDD 9.0 2.0 5.0
DDD 0.0 3.0 5.0
DDD 1.0 3.0 5.0
DDD 2.0 3.0 5.0
DDD 3.0 3.0 5.0
DDD 4.0 3.0 5.0
DDD 5.0 3.0 5.0
DDD 6.0 3.0 5.0
DDD 7.0 3.0 5.0
DDD 8.0 3.0 5.0
DDD 9.0 3.0 5.0
DDD 0.0 4.0 5.0
DDD 1.0 4.0 5.0
DDD 2.0 4.0 5.0
DDD 3.0 4.0 5.0
DDD 4.0 4.0 5.0
DDD 5.0 4.0 5.0
DDD 6.0 4.0 5.0
DDD 7.0 4.0 5.0
DDD 8.0 4.0 5.0
DDD 9.0 4.0 5.0
DDD 0.0 5.0 5.0
DDD 1.0 5.0 5.0
DDD 2.0 5.0 5.0
DDD 3.0 5.0 5.0
DDD 4.0 5.0 5.0
DDD 5.0 5.0 5.0
DDD 6.0 5.0 5.0
DDD 7.0 5.0 5.0
DDD 8.0 5.0 5.0
DDD 9.0 5.0 5.0
DDD 0.0 6.0 5.0
DDD 1.0 6.0 5.0
DDD 2.0 6.0 5.0
DDD 3.0 6.0 5.0
DDD 4.0 6.0 5.0
DDD 5.0 6.0 5.0
DDD 6.0 6.0 5.0
DDD 7.0 6.0 5.0
DDD 8.0 6.0 5.0
DDD 9.0 6.0 5.0
DDD 0.0 7.0 5.0
DDD 1.0 7.0 5.0
DDD 2.0 7.0 5.0
DDD 3.0 7.0 5.0
DDD 4.0 7.0 5.0
DDD 5.0 7.0 5.0
DDD 6.0 7.0 5.0
DDD 7.0 7.0 5.0
DDD 8.0 7.0 5.0
DDD 9.0 7.0 5.0
DDD 0.0 8.0 5.0
DDD 1.0 8.0 5.0
DDD 2.0 8.0 5.0
DDD 3.0 8.0 5.0
DDD 4.0 8.0 5.0
DDD 5.0 8.0 5.0
DDD 6.0 8.0 5.0
DDD 7.0 8.0 5.0
DDD 8.0 8.0 5.0
DDD 9.0 8.0 5.0
DDD 0.0 9.0 5.0
DDD 1.0 9.0 5.0
DDD 2.0 9.0 5.0
DDD 3.0 9.0 5.0
DDD 4.0 9.0 5.0
DDD 5.0 9.0 5.0
DDD 6.0 9.0 5.0
DDD 7.0 9.0 5.0
DDD 8.0 9.0 5.0
DDD 9.0 9.0 5.0
DDD 0.0 0.0 6.0
DDD 1.0 0.0 6.0
DDD 2.0 0.0 6.0
DDD 3.0 0.0 6.0
DDD 4.0 0.0 6.0
DDD 5.0 0.0 6.0
DDD 6.0 0.0 6.0
DDD 7.0 0.0 6.0
DDD 8.0 0.0 6.0
DDD 9.0 0.0 6.0
DDD 0.0 1.0 6.0
DDD 1.0 1.0 6.0
DDD 2.0 1.0 6.0
DDD 3.0 1.0 6.0
DDD 4.0 1.0 6.0
DDD 5.0 1.0 6.0
DDD 6.0 1.0 6.0
DDD 7.0 1.0 6.0
DDD 8.0 1.0 6.0
DDD 9.0 1.0 6.0
DDD 0.0 2.0 6.0
DDD 1.0 2.0 6.0
DDD 2.0 2.0 6.0
DDD 3.0 2.0 6.0
DDD 4.0 2.0 6.0
DDD 5.0 2.0 6.0
DDD 6.0 2.0 6.0
DDD 7.0 2.0 6.0
DDD 8.0 2.0 6.0
DDD 9.0 2.0 6.0
DDD 0.0 3.0 6.0
DDD 1.0 3.0 6.0
DDD 2.0 3.0 6.0
DDD 3.0 3.0 6.0
DDD 4.0 3.0 6.0
DDD 5.0 3.0 6.0
DDD 6.0 3.0 6.0
DDD 7.0 3.0 6.0
DDD 8.0 3.0 6.0
DDD 9.0 3.0 6.0
DDD 0.0 4.0 6.0
DDD 1.0 4.0 6.0
DDD 2.0 4.0 6.0
DDD 3.0 4.0 6.0
DDD 4.0 4.0 6.0
DDD 5.0 4.0 6.0
DDD 6.0 4.0 6.0
DDD 7.0 4.0 6.0
DDD 8.0 4.0 6.0
DDD 9.0 4.0 6.0
DDD 0.0 5.0 6.0
DDD 1.0 5.0 6.0
DDD 2.0 5.0 6.0
DDD 3.0 5.0 6.0
DDD 4.0 5.0 6.0
DDD 5.0 5.0 6.0
DDD 6.0 5.0 6.0
DDD 7.0 5.0 6.0
DDD 8.0 5.0 6.0
DDD 9.0 5.0 6.0
DDD 0.0 6.0 6.0
DDD 1.0 6.0 6.0
DDD 2.0 6.0 6.0
DDD 3.0 6.0 6.0
DDD 4.0 6.0 6.0
DDD 5.0 6.0 6.0
DDD 6.0 6.0 6.0
DDD 7.0 6.0 6.0
DDD 8.0 6.0 6.0
DDD 9.0 6.0 6.0
DDD 0.0 7.0 6.0
DDD 1.0 7.0 6.0
DDD 2.0 7.0 6.0
DDD 3.0 7.0 6.0
DDD 4.0 7.0 6.0
DDD 5.0 7.0 6.0
DDD 6.0 7.0 6.0
DDD 7.0 7.0 6.0
DDD 8.0 7.0 6.0
DDD 9.0 7.0 6.0
DDD 0.0 8.0 6.0
DDD 1.0 8.0 6.0
DDD 2.0 8.0 6.0
DDD 3.0 8.0 6.0
DDD 4.0 8.0 6.0
DDD 5.0 8.0 6.0
DDD 6.0 8.0 6.0
DDD 7.0 8.0 6.0
DDD 8.0 8.0 6.0
DDD 9.0 8.0 6.0
DDD 0.0 9.0 6.0
DDD 1.0 9.0 6.0
DDD 2.0 9.0 6.0
DDD 3.0 9.0 6.0
DDD 4.0 9.0 6.0
DDD 5.0 9.0 6.0
DDD 6.0 9.0 6.0
DDD 7.0 9.0 6.0
DDD 8.0 9.0 6.0
DDD 9.0 9.0 6.0
DDD 0.0 0.0 7.0
DDD 1.0 0.0 7.0
DDD 2.0 0.0 7.0
DDD 3.0 0.0 7.0
DDD 4.0 0.0 7.0
DDD 5.0 0.0 7.0
DDD 6.0 0.0 7.0
DDD 7.0 0.0 7.0
DDD 8.0 0.0 7.0
DDD 9.0 0.0 7.0
DDD 0.0 1.0 7.0
DDD 1.0 1.0 7.0
DDD 2.0 1.0 7.0
DDD 3.0 1.0 7.0
DDD 4.0 1.0 7.0
DDD 5.0 1.0 7.0
DDD 6.0 1.0 7.0
DDD 7.0 1.0 7.0
DDD 8.0 1.0 7.0
DDD 9.0 1.0 7.0
DDD 0.0 2.0 7.0
DDD 1.0 2.0 7.0
DDD 2.0 2.0 7.0
DDD 3.0 2.0 7.0
DDD 4.0 2.0 7.0
DDD 5.0 2.0 7.0
DDD 6.0 2.0 7.0
DDD 7.0 2.0 7.0
DDD 8.0 2.0 7.0
DDD 9.0 2.0 7.0
DDD 0.0 3.0 7.0
DDD 1.0 3.0 7.0
DDD 2.0 3.0 7.0
DDD 3.0 3.0 7.0
DDD 4.0 3.0 7.0
DDD 5.0 3.0 7.0
DDD 6.0 3.0 7.0
DDD 7.0 3.0 7.0
DDD 8.0 3.0 7.0
DDD 9.0 3.0 7.0
DDD 0.0 4.0 7.0
DDD 1.0 4.0 7.0
DDD 2.0 4.0 7.0
DDD 3.0 4.0 7.0
DDD 4.0 4.0 7.0
DDD 5.0 4.0 7.0
DDD 6.0 4.0 7.0
DDD 7.0 4.0 7.0
DDD 8.0 4.0 7.0
DDD 9.0 4.0 7.0
DDD 0.0 5.0 7.0
DDD 1.0 5.0 7.0
DDD 2.0 5.0 7.0
DDD 3.0 5.0 7.0
DDD 4.0 5.0 7.0
DDD 5.0 5.0 7.0
DDD 6.0 5.0 7.0
DDD 7.0 5.0 7.0
DDD 8.0 5.0 7.0
DDD 9.0 5.0 7.0
DDD 0.0 6.0 7.0
DDD 1.0 6.0 7.0
DDD 2.0 6.0 7.0
DDD 3.0 6.0 7.0
DDD 4.0 6.0 7.0
DDD 5.0 6.0 7.0
DDD 6.0 6.0 7.0
DDD 7.0 6.0 7.0
DDD 8.0 6.0 7.0
DDD 9.0 6.0 7.0
DDD 0.0 7.0 7.0
DDD 1.0 7.0 7.0
DDD 2.0 7.0 7.0
DDD 3.0 7.0 7.0
DDD 4.0 7.0 7.0
DDD 5.0 7.0 7.0
DDD 6.0 7.0 7.0
DDD 7.0 7.0 7.0
DDD 8.0 7.0 7.0
DDD 9.0 7.0 7.0
DDD 0.0 8.0 7.0
DDD 1.0 8.0 7.0
DDD 2.0 8.0 7.0
DDD 3.0 8.0 7.0
DDD 4.0 8.0 7.0
DDD 5.0 8.0 7.0
DDD 6.0 8.0 7.0
DDD 7.0 8.0 7.0
DDD 8.0 8.0 7.0
DDD 9.0 8.0 7.0
DDD 0.0 9.0 7.0
DDD 1.0 9.0 7.0
DDD 2.0 9.0 7.0
DDD 3.0 9.0 7.0
DDD 4.0 9.0 7.0
DDD 5.0 9.0 7.0
DDD 6.0 9.0 7.0
DDD 7.0 9.0 7.0
DDD 8.0 9.0 7.0
DDD 9.0 9.0 7.0
DDD 0.0 0.0 8.0
DDD 1.0 0.0 8.0
DDD 2.0 0.0 8.0
DDD 3.0 0.0 8.0
DDD 4.0 0.0 8.0
DDD 5.0 0.0 8.0
DDD 6.0 0.0 8.0
DDD 7.0 0.0 8.0
DDD 8.0 0.0 8.0
DDD 9.0 0.0 8.0
DDD 0.0 1.0 8.0
DDD 1.0 1.0 8.0
DDD 2.0 1.0 8.0
DDD 3.0 1.0 8.0
DDD 4.0 1.0 8.0
DDD 5.0 1.0 8.0
DDD 6.0 1.0 8.0
DDD 7.0 1.0 8.0
DDD 8.0 1.0 8.0
DDD 9.0 1.0 8.0
DDD 0.0 2.0 8.0
DDD 1.0 2.0 8.0
DDD 2.0 2.0 8.0
DDD 3.0 2.0 8.0
DDD 4.0 2.0 8.0
DDD 5.0 2.0 8.0
DDD 6.0 2.0 8.0
DDD 7.0 2.0 8.0
DDD 8.0 2.0 8.0
DDD 9.0 2.0 8.0
DDD 0.0 3.0 8.0
DDD 1.0 3.0 8.0
DDD 2.0 3.0 8.0
DDD 3.0 3.0 8.0
DDD 4.0 3.0 8.0
DDD 5.0 3.0 8.0
DDD 6.0 3.0 8.0
DDD 7.0 3.0 8.0
DDD 8.0 3.0 8.0
DDD 9.0 3.0 8.0
DDD 0.0 4.0 8.0
DDD 1.0 4.0 8.0
DDD 2.0 4.0 8.0
DDD 3.0 4.0 8.0
DDD 4.0 4.0 8.0
DDD 5.0 4.0 8.0
DDD 6.0 4.0 8.0
DDD 7.0 4.0 8.0
DDD 8.0 4.0 8.0
DDD 9.0 4.0 8.0
DDD 0.0 5.0 8.0
DDD 1.0 5.0 8.0
DDD 2.0 5.0 8.0
DDD 3.0 5.0 8.0
DDD 4.0 5.0 8.0
DDD 5.0 5.0 8.0
DDD 6.0 5.0 8.0
DDD 7.0 5.0 8.0
DDD 8.0 5.0 8.0
DDD 9.0 5.0 8.0
DDD 0.0 6.0 8.0
DDD 1.0 6.0 8.0
DDD 2.0 6.0 8.0
DDD 3.0 6.0 8.0
DDD 4.0 6.0 8.0
DDD 5.0 6.0 8.0
DDD 6.0 6.0 8.0
DDD 7.0 6.0 8.0
DDD 8.0 6.0 8.0
DDD 9.0 6.0 8.0
DDD 0.0 7.0 8.0
DDD 1.0 7.0 8.0
DDD 2.0 7.0 8.0
DDD 3.0 7.0 8.0
DDD 4.0 7.0 8.0
DDD 5.0 7.0 8.0
DDD 6.0 7.0 8.0
DDD 7.0 7.0 8.0
DDD 8.0 7.0 8.0
DDD 9.0 7.0 8.0
DDD 0.0 8.0 8.0
DDD 1.0 8.0 8.0
DDD 2.0 8.0 8.0
DDD 3.0 8.0 8.0
DDD 4.0 8.0 8.0
DDD 5.0 8.0 8.0
DDD 6.0 8.0 8.0
DDD 7.0 8.0 8.0
DDD 8.0 8.0 8.0
DDD 9.0 8.0 8.0
DDD 0.0 9.0 8.0
DDD 1.0 9.0 8.0
DDD 2.0 9.0 8.0
DDD 3.0 9.0 8.0
DDD 4.0 9.0 8.0
DDD 5.0 9.0 8.0
DDD 6.0 9.0 8.0
DDD 7.0 9.0 8.0
DDD 8.0 9.0 8.0
DDD 9.0 9.0 8.0
DDD 0.0 0.0 9.0
DDD 1.0 0.0 9.0
DDD 2.0 0.0 9.0
DDD 3.0 0.0 9.0
DDD 4.0 0.0 9.0
DDD 5.0 0.0 9.0
DDD 6.0 0.0 9.0
DDD 7.0 0.0 9.0
DDD 8.0 0.0 9.0
DDD 9.0 0.0 9.0
DDD 0.0 1.0 9.0
DDD 1.0 1.0 9.0
DDD 2.0 1.0 9.0
DDD 3.0 1.0 9.0
DDD 4.0 1.0 9.0
DDD 5.0 1.0 9.0
DDD 6.0 1.0 9.0
DDD 7.0 1.0 9.0
DDD 8.0 1.0 9.0
DDD 9.0 1.0 9.0
DDD 0.0 2.0 9.0
DDD 1.0 2.0 9.0
DDD 2.0 2.0 9.0
DDD 3.0 2.0 9.0
DDD 4.0 2.0 9.0
DDD 5.0 2.0 9.0
DDD 6.0 2.0 9.0
DDD 7.0 2.0 9.0
DDD 8.0 2.0 9.0
DDD 9.0 2.0 9.0
DDD 0.0 3.0 9.0
DDD 1.0 3.0 9.0
DDD 2.0 3.0 9.0
DDD 3.0 3.0 9.0
DDD 4.0 3.0 9.0
DDD 5.0 3.0 9.0
DDD 6.0 3.0 9.0
DDD 7.0 3.0 9.0
DDD 8.0 3.0 9.0
DDD 9.0 3.0 9.0
DDD 0.0 4.0 9.0
DDD 1.0 4.0 9.0
DDD 2.0 4.0 9.0
DDD 3.0 4.0 9.0
DDD 4.0 4.0 9.0
DDD 5.0 4.0 9.0
DDD 6.0 4.0 9.0
DDD 7.0 4.0 9.0
DDD 8.0 4.0 9.0
DDD 9.0 4.0 9.0
DDD 0.0 5.0 9.0
DDD 1.0 5.0 9.0
DDD 2.0 5.0 9.0
DDD 3.0 5.0 9.0
DDD 4.0 5.0 9.0
DDD 5.0 5.0 9.0
DDD 6.0 5.0 9.0
DDD 7.0 5.0 9.0
DDD 8.0 5.0 9.0
DDD 9.0 5.0 9.0
DDD 0.0 6.0 9.0
DDD 1.0 6.0 9.0
DDD 2.0 6.0 9.0
DDD 3.0 6.0 9.0
DDD 4.0 6.0 9.0
DDD 5.0 6.0 9.0
DDD 6.0 6.0 9.0
DDD 7.0 6.0 9.0
DDD 8.0 6.0 9.0
DDD 9.0 6.0 9.0
DDD 0.0 7.0 9.0
DDD 1.0 7.0 9.0
DDD 2.0 7.0 9.0
DDD 3.0 7.0 9.0
DDD 4.0 7.0 9.0
DDD 5.0 7.0 9.0
DDD 6.0 7.0 9.0
DDD 7.0 7.0 9.0
DDD 8.0 7.0 9.0
DDD 9.0 7.0 9.0
DDD 0.0 8.0 9.0
DDD 1.0 8.0 9.0
DDD 2.0 8.0 9.0
DDD 3.0 8.0 9.0
DDD 4.0 8.0 9.0
DDD 5.0 8.0 9.0
DDD 6.0 8.0 9.0
DDD 7.0 8.0 9.0
DDD 8.0 8.0 9.0
DDD 9.0 8.0 9.0
DDD 0.0 9.0 9.0
DDD 1.0 9.0 9.0
DDD 2.0 9.0 9.0
DDD 3.0 9.0 9.0
DDD 4.0 9.0 9.0
DDD 5.0 9.0 9.0
DDD 6.0 9.0 9.0
DDD 7.0 9.0 9.0
DDD 8.0 9.0 9.0
DDD 9.0 9.0 9.0
END

EOF